# vtk DataFile Version 3.0
# Voxel grid data written by Ovito 3.8.1
ASCII
DATASET STRUCTURED_POINTS
DIMENSIONS 10 10 10
ORIGIN -0.3561939926 -0.3561939926 -0.3561939926
SPACING 2.9264387985 2.9264387985 2.9264387985
POINT_DATA 1000

SCALARS v_mises double 1
LOOKUP_TABLE default
7.01222 11.4574 8.234225 9.35589 6.26276 7.92843 6.4423733333 4.88602 9.07 5.01621 
8.322395 9.92369 2.85392 7.1586633333 7.1168833333 7.04512 8.73891 5.4120925 9.77773 9.95609 
10.00209 7.98507 8.8103233333 6.7197625 4.63196 7.24302 7.197105 8.6908433333 3.94114 8.47604 
6.91092 6.40478 4.79296 6.97117 7.91365 7.2184 10.349 7.125475 11.917925 9.52712 
12.8539 6.35014 5.8545333333 7.84913 10.116515 7.7278733333 4.41793 8.64588 9.2745833333 4.95315 
8.28494 4.8299875 6.87623 8.17636 6.6169 6.85838 6.755555 4.74898 6.530915 7.90444 
9.0283166667 7.74616 8.935732 2.65582 9.493745 4.86253 6.3307733333 7.7770875 8.84768 7.5715333333 
11.5661 9.3796366667 6.01222 7.536675 8.70654 8.63095 5.63428 9.57713 4.694595 10.8609 
7.140295 8.989475 5.75686 4.47267 5.69699 4.203955 5.6391066667 9.154755 8.1634 8.00086 
7.986765 11.238215 7.68984 9.85249 8.27444 10.045835 8.38244 6.13593 5.8739 5.00868 
8.00138 8.30468 9.7044833333 7.5397533333 6.674145 8.2864333333 7.48471 6.45177 5.1212 7.4319 
8.67955 2.42264 7.12106 7.9398466667 5.22154 7.5609 8.33104 13.6012 7.137955 7.1561133333 
7.6492 10.3776 5.055125 5.90247 7.3887275 6.3805 7.470605 5.7072633333 4.63775 7.93264 
9.26083 3.69944 4.87476 7.1507966667 8.319905 7.068905 9.74118 11.8036 7.9580966667 6.3488 
8.8250433333 10.478575 5.07346 6.58614 7.910605 6.85608 9.187525 10.05119 5.914275 12.18415 
9.00069 6.8700933333 5.26053 6.58904 5.875525 7.36225 5.3313 6.42121 2.56953 9.180605 
9.1455633333 7.49257 10.91217 10.5025 10.0393466667 7.40157 8.69785 8.53777 6.12073 8.2247825 
8.99275 9.40387 6.15638 4.05631 9.08388 5.26189 5.8588125 7.38581 7.49204 6.597995 
5.756605 6.668345 7.73197 5.80582 9.27603 8.112685 6.6671333333 6.2491733333 10.6113 5.93403 
6.8951166667 10.24762 8.13748 6.397315 5.92987 7.80375 5.1025266667 8.10531 9.69755 4.7075 
2.68302 6.39772 10.832 6.011005 6.5351 10.10944 6.37436 10.2802566667 6.56276 6.771335 
5.83882 10.38573 6.985405 7.9522 8.47419 9.07013 5.519135 8.32691 5.92118 7.6625633333 
7.3230433333 6.2480433333 10.22074 7.95646 9.14232 3.829965 9.85924 9.2452166667 5.7007 4.79661 
6.95015 5.436825 2.80013 5.4226775 4.61062 7.29265 4.2961 8.206045 6.08477 6.33694 
5.52352 8.452075 5.61616 4.93463 5.7181 6.9028 7.76316 9.93049 9.74968 6.16984 
6.00891 10.3019033333 11.3243 9.8481075 6.36903 6.7286 8.157185 8.2347533333 7.529845 8.8786233333 
8.818745 6.74357 12.4664 8.973615 6.189365 4.73119 8.75197 7.6564066667 4.669125 5.11365 
6.80981 5.588715 6.3597233333 5.45332 12.3287 9.193115 11.5393 10.563055 7.65454 8.04736 
5.200485 5.1276833333 8.23089 6.60943 8.727425 8.30347 5.78643 5.0922275 8.803465 7.034885 
8.4264666667 6.3887 7.615705 5.61108 8.00388 11.79022 5.04583 8.36595 4.80107 7.52386 
6.98947 7.11924 6.890535 7.526805 6.795845 4.63461 9.17858 6.53019 10.135815 5.00258 
7.80058 10.34155 5.75767 7.6952 8.618025 4.08489 2.72752 5.5135 8.8099 8.94872 
7.22488 8.84998 6.8589 8.4684166667 9.38129 6.70226 7.94352 8.84709 7.4332866667 8.28792 
5.65942 8.38353 8.77397 9.05055 6.087065 6.54733 8.68591 7.8239266667 10.321 8.584895 
7.9564025 7.7360833333 7.35481 6.79914 8.0762133333 7.08583 8.82711 10.306225 4.36458 8.378205 
11.090595 9.29744 9.53784 7.587245 10.7408 6.4531125 5.91265 7.0503233333 6.08268 6.222535 
5.81391 6.72898 6.87134 8.39335 7.44599 7.27362 7.067565 4.05057 5.695485 6.51978 
10.917045 13.4781266667 7.2351466667 7.05179 7.87897 4.951445 6.016495 6.2479566667 7.0685 5.304225 
5.87472 9.31472 7.185545 6.50532 5.14363 7.291775 7.84 6.92648 8.15136 5.22 
10.4348675 6.7312625 6.23058 8.04513 6.929325 6.403025 7.142295 6.48523 5.42802 5.2951233333 
6.14667 7.87198 5.19311 7.13876 12.35135 8.2257733333 6.65693 5.0154 4.46176 6.03185 
7.8652466667 3.97387 6.14749 7.92438 6.057985 4.02217 7.48408 6.33006 6.5592033333 7.98705 
6.06683 8.662745 8.22968 7.617945 7.55177 7.2643 6.08104 7.91639 5.922115 7.57361 
6.27191 10.599495 7.35645 6.6096533333 6.51947 11.71973 6.991145 5.747445 4.84584 5.37424 
7.2829666667 6.41851 10.56203 2.73495 7.07242 7.12226 7.1658466667 6.71502 5.33308 7.8557866667 
4.43944 8.20357 5.10117 7.133795 8.58444 6.400345 6.22095 4.53162 8.5453033333 7.394415 
8.743965 7.83032 5.57979 7.864735 7.83449 6.65396 7.110415 8.37286 7.12075 8.23649 
8.07483 10.937965 6.18174 7.1547833333 5.572535 6.231295 8.0225333333 7.20897 7.86977 7.65889 
6.6193366667 5.87811 5.98453 7.078545 9.58467 9.047605 9.64631 6.1818433333 7.73684 7.38759 
7.4963 9.46791 8.28729 8.04714 8.8720466667 6.3597333333 7.50832 7.535575 8.181715 4.853385 
10.02904 6.105685 6.859455 7.14232 11.434 4.25102 7.175435 6.27689 9.2116333333 10.247985 
5.7791 8.4740266667 5.03577 10.02251 11.81215 3.63982 8.392365 9.2165666667 5.14414 8.273485 
7.34194 7.30321 5.98145 8.01642 8.04151 6.26992 6.60775 5.61435 6.25892 5.797685 
4.88698 6.43883 4.376105 5.15083 8.02352 8.79692 6.1213833333 7.11637 9.32308 8.24786 
6.2178566667 3.6448 9.416722 7.29884 8.549545 9.3311166667 6.8532533333 8.700425 6.91476 6.762895 
9.154825 4.30818 6.77114 12.86221 5.21116 6.692535 5.67544 5.22412 8.12667 9.782005 
7.256405 4.87476 8.934725 9.5992 8.12739 6.176045 5.137625 8.16015 4.42687 11.7732 
8.1322175 9.65599 6.49641 7.0744766667 11.0814 7.9753833333 5.952475 9.62467 3.231795 7.212895 
6.576935 9.3078233333 6.38088 4.54635 6.98366 6.43388 6.88722 6.851162 8.68986 3.884425 
7.06284 8.60251 6.81304 7.88751 11.8626 8.000595 7.27401 7.1029 7.03454 7.00553 
12.3099 6.67533 7.89036 6.1590733333 6.09903 7.5690133333 7.09441 9.70016 3.55963 6.22813 
6.12279 6.9434566667 3.72247 7.23696 6.77224 7.48067 7.43999 6.71812 8.461795 6.9030325 
6.74125 5.73094 5.761765 6.652505 8.197445 10.0968566667 7.46992 11.6728 5.76241 5.53439 
13.3204 6.698685 6.11271 6.45787 6.4091166667 8.25932 7.18819 7.625585 6.8501 8.494495 
11.4176633333 9.67469 9.3052466667 7.56389 6.32208 5.0241 7.47128 7.01726 7.62404 6.721575 
9.31924 6.35276 12.8348 8.80201 7.01012 3.83311 7.802635 10.66144 8.275905 8.34019 
7.39875 11.1316 8.4860475 2.8399 6.4344733333 5.2672825 4.56076 5.7804966667 10.5123633333 12.5502 
6.95713 5.0546 7.70332 7.4564566667 6.17574 7.223205 10.553665 8.71739 10.479565 7.19217 
10.9447 8.0961 7.25997 4.9934 5.41683 6.67862 4.28439 9.6960033333 5.57101 7.4148266667 
8.50245 7.85545 5.44911 2.14893 6.724835 7.57072 8.14064 6.14676 8.974525 7.45691 
9.118945 9.54544 9.360715 11.9752 8.33836 7.655685 5.17535 7.07209 8.26541 7.05031 
4.06645 6.80654 10.40096 3.85147 7.03096 9.4797466667 9.6152 7.302845 4.25705 6.44748 
12.7574 7.68918 4.63931 5.2552333333 4.818885 4.808315 7.508355 6.41172 5.46978 8.092545 
10.134935 8.3213333333 5.19365 7.338115 8.15866 6.3714733333 7.3303033333 7.355605 5.63312 3.62782 
10.3478 8.36289 4.94224 8.19956 4.28395 5.880405 10.6879 10.05369 7.64486 8.506145 
10.4094366667 7.33244 10.2811 11.5731225 6.470155 6.86324 10.5275 11.0300666667 7.22366 9.32552 
8.35111 10.73027 11.6633 10.95315 8.44131 7.6586033333 7.6841775 8.89121 7.683605 9.37371 
10.6830133333 7.5824075 7.094825 7.798195 7.25585 5.83712 5.64898 7.075885 9.1271833333 8.54655 
7.02108 9.61272 9.077965 7.05935 6.0037925 6.01664 6.275245 6.37248 2.49575 7.348995 
9.28684 8.18381 6.5182366667 9.44645 7.827345 7.40348 5.21265 9.526915 6.059435 8.224175 
8.0362266667 9.98235 5.26325 8.673245 7.5749733333 6.23222 10.9618 5.54666 8.2603 9.991095 
8.0245733333 6.7237133333 6.75523 8.2640166667 6.82147 12.6691966667 2.32733 4.326555 5.840645 6.7653833333 
7.698355 7.01496 8.901255 5.69575 9.43352 9.0181 7.6828466667 7.03666 7.054305 5.39977 
8.650232 2.72234 8.3325166667 7.44775 8.79641 6.7122233333 7.233885 5.3191466667 8.3513233333 4.793 
11.43205 6.9886 6.9368433333 12.96135 7.04334 5.9716 5.18889 4.942675 8.338055 9.02925 
6.401985 7.479658 9.23375 5.38488 6.66845 7.908595 9.16439 7.26279 7.15113 10.482945 
6.59235 10.9759 5.7073 6.563035 7.1834 5.156765 4.5378 8.38161 9.86635 7.384645 
11.0007 9.88601 10.76165 10.14472 11.1135 10.25862 5.12474 9.8557366667 6.349065 9.43659 
6.12419 6.810425 6.68299 4.8296 7.51045 6.90764 4.53754 8.566845 8.45092 7.875975 
7.4212625 3.32291 4.90912 8.02848 7.85362 6.07675 5.832605 7.0290033333 5.481665 8.610395 
5.34923 7.85414 9.143 9.043645 11.0962066667 7.61282 8.067985 3.83492 8.50404 12.51335 
7.46374 8.931795 5.11195 8.736185 6.63774 8.2127566667 6.59693 10.53415 8.50393 6.3068 
7.41141 9.3012233333 5.44876 6.378565 11.35665 7.205085 6.759 5.97851 9.805865 10.07809 
11.267745 8.15092 5.19536 9.441775 6.60351 8.339 8.52837 7.024215 7.3936475 5.03006 
9.8745466667 7.68332 4.65486 11.1365 9.528145 8.084945 9.0089333333 5.223345 10.415445 13.08045 
10.0634 6.24245 7.20025 7.5658333333 7.44641 7.72903 6.270085 5.34542 10.5607533333 5.64605 
6.76698 5.50377 9.605175 10.181805 7.51791 7.427525 10.224015 5.2026 8.14863 5.15851 
7.47969 4.694095 8.20589 7.6306075 10.0281 9.94978 8.2290575 8.06706 8.79267 5.18537 
6.33807 6.814595 9.35105 5.46157 6.54525 6.18256 6.1581933333 7.09394 8.277185 6.74202 
9.004955 8.67746 11.3393133333 10.168095 7.35608 5.58054 6.38989 9.675145 5.9663 7.15507 
