# vtk DataFile Version 3.0
# Voxel grid data written by Ovito 3.8.1
ASCII
DATASET STRUCTURED_POINTS
DIMENSIONS 10 10 1
ORIGIN -0.3561939926 -0.3561939926 -0.3561939926
SPACING 2.9264387985 2.9264387985 1.0
POINT_DATA 100

SCALARS v_mises double 1
LOOKUP_TABLE default
8.2346278947 8.06439 7.8106110526 8.027457 8.5251395833 7.6139594737 7.6972568421 7.0795941176 7.7349961111 7.7465957895 
7.2780714286 8.1409813636 6.4397871429 8.0052940909 7.7772415789 8.4047347368 7.2936552941 7.4227671429 7.2214752632 7.4756813043 
7.6244113636 7.7732978261 7.3962068421 6.8535481818 7.92812 7.0348344444 7.4449045 7.4843895455 6.3782477778 7.3079538095 
8.5137257895 7.2621155 6.3119623529 6.9268426316 7.0864290476 8.0108190476 7.5610226316 7.2258965 7.657793913 7.199184 
8.9479453846 7.8768752941 7.5716843478 8.275737 7.67808 7.162755 7.73815 8.2016644444 8.0820294737 8.448442 
8.8206452632 7.3653966667 8.3492133333 8.9938358333 6.9220316667 6.818607 7.1684664706 7.7624447368 7.7942388889 8.5716190476 
8.15063875 7.889154375 9.1369986957 8.21605 7.7670805 6.3458165217 7.202725 7.1024113636 7.4776353333 8.274538 
9.22914 8.767247 7.2367571429 7.3979117391 8.6135776471 7.6457804545 7.2061995455 8.3725819048 7.4063609091 7.5876436842 
6.52824 7.6274817391 7.3869713333 5.88139125 6.9109134783 7.1782890476 6.2897458824 7.0467061538 7.8977233333 6.8788477778 
8.354345 8.19545 7.7245185 7.94151 7.731217 7.7302805556 6.4048842105 8.0415118182 7.0847384211 6.5258728571 
